data;

param N := 9;

set NODES := 1 2 3 4 5 6 7 8 9;

param START_NODE := 1;
param END_NODE := 8;

set ARCS := (1,2) (1,3) (1,4) (2,8) (3,2) (3,4) (3,6) (4,9) (4,5) 
	(5,3) (5,6) (5,7) (5,9) (6,2) (6,8) (7,6) (7,8) (7,9) (9,8);

param: 
  DIST :=
1	2	15
1	3	13
1	4	5
2	8	12
3	2	2
3	4	18
3	6	6
4	9	99
4	5	4
5	3	3
5	6	1
5	7	9
5	9	14
6	2	8
6	8	17
7	6	16
7	8	7
7	9	10
9	8	11
;
